! Opt Freq B3LYP def2-SVP
* xyzfile -1 1 reactant.xyz
